p cnf 719 2114
-1 -2 51 0
1 -2 -51 0
-1 2 -51 0
1 2 51 0
4 5 52 0
-4 5 -52 0
4 -5 -52 0
-4 -5 52 0
-8 -9 53 0
8 -9 -53 0
-8 9 -53 0
8 9 53 0
-10 12 54 0
10 12 -54 0
-10 -12 -54 0
10 -12 54 0
16 17 55 0
-16 17 -55 0
16 -17 -55 0
-16 -17 55 0
-18 -19 56 0
18 -19 -56 0
-18 19 -56 0
18 19 56 0
23 24 57 0
-23 24 -57 0
23 -24 -57 0
-23 -24 57 0
25 -26 58 0
-25 -26 -58 0
25 26 -58 0
-25 26 58 0
28 31 59 0
-28 31 -59 0
28 -31 -59 0
-28 -31 59 0
33 34 60 0
-33 34 -60 0
33 -34 -60 0
-33 -34 60 0
35 41 61 0
-35 41 -61 0
35 -41 -61 0
-35 -41 61 0
-42 -43 62 0
42 -43 -62 0
-42 43 -62 0
42 43 62 0
46 47 63 0
-46 47 -63 0
46 -47 -63 0
-46 -47 63 0
50 -51 64 0
-50 -51 -64 0
50 51 -64 0
-50 51 64 0
52 -53 65 0
-52 -53 -65 0
52 53 -65 0
-52 53 65 0
54 -55 66 0
-54 -55 -66 0
54 55 -66 0
-54 55 66 0
56 -57 67 0
-56 -57 -67 0
56 57 -67 0
-56 57 67 0
58 -59 68 0
-58 -59 -68 0
58 59 -68 0
-58 59 68 0
60 -61 69 0
-60 -61 -69 0
60 61 -69 0
-60 61 69 0
62 -63 70 0
-62 -63 -70 0
62 63 -70 0
-62 63 70 0
64 -65 71 0
-64 -65 -71 0
64 65 -71 0
-64 65 71 0
66 -67 72 0
-66 -67 -72 0
66 67 -72 0
-66 67 72 0
68 -69 73 0
-68 -69 -73 0
68 69 -73 0
-68 69 73 0
70 -71 74 0
-70 -71 -74 0
70 71 -74 0
-70 71 74 0
72 -73 75 0
-72 -73 -75 0
72 73 -75 0
-72 73 75 0
74 75 0
-74 -75 0
-5 -7 76 0
5 -7 -76 0
-5 7 -76 0
5 7 76 0
8 -9 77 0
-8 -9 -77 0
8 9 -77 0
-8 9 77 0
11 -12 78 0
-11 -12 -78 0
11 12 -78 0
-11 12 78 0
-15 -16 79 0
15 -16 -79 0
-15 16 -79 0
15 16 79 0
18 -19 80 0
-18 -19 -80 0
18 19 -80 0
-18 19 80 0
-20 21 81 0
20 21 -81 0
-20 -21 -81 0
20 -21 81 0
-22 23 82 0
22 23 -82 0
-22 -23 -82 0
22 -23 82 0
-25 29 83 0
25 29 -83 0
-25 -29 -83 0
25 -29 83 0
-35 37 84 0
35 37 -84 0
-35 -37 -84 0
35 -37 84 0
38 -39 85 0
-38 -39 -85 0
38 39 -85 0
-38 39 85 0
41 49 86 0
-41 49 -86 0
41 -49 -86 0
-41 -49 86 0
75 -76 87 0
-75 -76 -87 0
75 76 -87 0
-75 76 87 0
77 -78 88 0
-77 -78 -88 0
77 78 -88 0
-77 78 88 0
79 -80 89 0
-79 -80 -89 0
79 80 -89 0
-79 80 89 0
81 -82 90 0
-81 -82 -90 0
81 82 -90 0
-81 82 90 0
83 -84 91 0
-83 -84 -91 0
83 84 -91 0
-83 84 91 0
85 -86 92 0
-85 -86 -92 0
85 86 -92 0
-85 86 92 0
87 -88 93 0
-87 -88 -93 0
87 88 -93 0
-87 88 93 0
89 -90 94 0
-89 -90 -94 0
89 90 -94 0
-89 90 94 0
91 -92 95 0
-91 -92 -95 0
91 92 -95 0
-91 92 95 0
-93 -94 95 0
93 -94 -95 0
-93 94 -95 0
93 94 95 0
2 -6 96 0
-2 -6 -96 0
2 6 -96 0
-2 6 96 0
7 -8 97 0
-7 -8 -97 0
7 8 -97 0
-7 8 97 0
10 -11 98 0
-10 -11 -98 0
10 11 -98 0
-10 11 98 0
15 16 99 0
-15 16 -99 0
15 -16 -99 0
-15 -16 99 0
17 22 100 0
-17 22 -100 0
17 -22 -100 0
-17 -22 100 0
-23 24 101 0
23 24 -101 0
-23 -24 -101 0
23 -24 101 0
-27 -29 102 0
27 -29 -102 0
-27 29 -102 0
27 29 102 0
-31 -32 103 0
31 -32 -103 0
-31 32 -103 0
31 32 103 0
36 -38 104 0
-36 -38 -104 0
36 38 -104 0
-36 38 104 0
-39 -40 105 0
39 -40 -105 0
-39 40 -105 0
39 40 105 0
41 43 106 0
-41 43 -106 0
41 -43 -106 0
-41 -43 106 0
44 -45 107 0
-44 -45 -107 0
44 45 -107 0
-44 45 107 0
46 -47 108 0
-46 -47 -108 0
46 47 -108 0
-46 47 108 0
48 -49 109 0
-48 -49 -109 0
48 49 -109 0
-48 49 109 0
95 -96 110 0
-95 -96 -110 0
95 96 -110 0
-95 96 110 0
97 -98 111 0
-97 -98 -111 0
97 98 -111 0
-97 98 111 0
99 -100 112 0
-99 -100 -112 0
99 100 -112 0
-99 100 112 0
101 -102 113 0
-101 -102 -113 0
101 102 -113 0
-101 102 113 0
103 -104 114 0
-103 -104 -114 0
103 104 -114 0
-103 104 114 0
105 -106 115 0
-105 -106 -115 0
105 106 -115 0
-105 106 115 0
107 -108 116 0
-107 -108 -116 0
107 108 -116 0
-107 108 116 0
109 -110 117 0
-109 -110 -117 0
109 110 -117 0
-109 110 117 0
111 -112 118 0
-111 -112 -118 0
111 112 -118 0
-111 112 118 0
113 -114 119 0
-113 -114 -119 0
113 114 -119 0
-113 114 119 0
115 -116 120 0
-115 -116 -120 0
115 116 -120 0
-115 116 120 0
117 -118 121 0
-117 -118 -121 0
117 118 -121 0
-117 118 121 0
119 -120 122 0
-119 -120 -122 0
119 120 -122 0
-119 120 122 0
121 122 0
-121 -122 0
-2 -6 123 0
2 -6 -123 0
-2 6 -123 0
2 6 123 0
8 -10 124 0
-8 -10 -124 0
8 10 -124 0
-8 10 124 0
11 -13 125 0
-11 -13 -125 0
11 13 -125 0
-11 13 125 0
-16 -17 126 0
16 -17 -126 0
-16 17 -126 0
16 17 126 0
19 20 127 0
-19 20 -127 0
19 -20 -127 0
-19 -20 127 0
-22 -24 128 0
22 -24 -128 0
-22 24 -128 0
22 24 128 0
-26 -27 129 0
26 -27 -129 0
-26 27 -129 0
26 27 129 0
-28 -30 130 0
28 -30 -130 0
-28 30 -130 0
28 30 130 0
31 35 131 0
-31 35 -131 0
31 -35 -131 0
-31 -35 131 0
-36 37 132 0
36 37 -132 0
-36 -37 -132 0
36 -37 132 0
-38 -39 133 0
38 -39 -133 0
-38 39 -133 0
38 39 133 0
41 -43 134 0
-41 -43 -134 0
41 43 -134 0
-41 43 134 0
44 45 135 0
-44 45 -135 0
44 -45 -135 0
-44 -45 135 0
46 48 136 0
-46 48 -136 0
46 -48 -136 0
-46 -48 136 0
122 -123 137 0
-122 -123 -137 0
122 123 -137 0
-122 123 137 0
124 -125 138 0
-124 -125 -138 0
124 125 -138 0
-124 125 138 0
126 -127 139 0
-126 -127 -139 0
126 127 -139 0
-126 127 139 0
128 -129 140 0
-128 -129 -140 0
128 129 -140 0
-128 129 140 0
130 -131 141 0
-130 -131 -141 0
130 131 -141 0
-130 131 141 0
132 -133 142 0
-132 -133 -142 0
132 133 -142 0
-132 133 142 0
134 -135 143 0
-134 -135 -143 0
134 135 -143 0
-134 135 143 0
136 -137 144 0
-136 -137 -144 0
136 137 -144 0
-136 137 144 0
138 -139 145 0
-138 -139 -145 0
138 139 -145 0
-138 139 145 0
140 -141 146 0
-140 -141 -146 0
140 141 -146 0
-140 141 146 0
142 -143 147 0
-142 -143 -147 0
142 143 -147 0
-142 143 147 0
144 -145 148 0
-144 -145 -148 0
144 145 -148 0
-144 145 148 0
146 -147 149 0
-146 -147 -149 0
146 147 -149 0
-146 147 149 0
148 149 0
-148 -149 0
-2 3 150 0
2 3 -150 0
-2 -3 -150 0
2 -3 150 0
11 -13 151 0
-11 -13 -151 0
11 13 -151 0
-11 13 151 0
-18 -23 152 0
18 -23 -152 0
-18 23 -152 0
18 23 152 0
-26 29 153 0
26 29 -153 0
-26 -29 -153 0
26 -29 153 0
-30 -33 154 0
30 -33 -154 0
-30 33 -154 0
30 33 154 0
-34 35 155 0
34 35 -155 0
-34 -35 -155 0
34 -35 155 0
36 -40 156 0
-36 -40 -156 0
36 40 -156 0
-36 40 156 0
44 -48 157 0
-44 -48 -157 0
44 48 -157 0
-44 48 157 0
149 -150 158 0
-149 -150 -158 0
149 150 -158 0
-149 150 158 0
151 -152 159 0
-151 -152 -159 0
151 152 -159 0
-151 152 159 0
153 -154 160 0
-153 -154 -160 0
153 154 -160 0
-153 154 160 0
155 -156 161 0
-155 -156 -161 0
155 156 -161 0
-155 156 161 0
157 -158 162 0
-157 -158 -162 0
157 158 -162 0
-157 158 162 0
159 -160 163 0
-159 -160 -163 0
159 160 -163 0
-159 160 163 0
-161 -162 163 0
161 -162 -163 0
-161 162 -163 0
161 162 163 0
-1 -2 164 0
1 -2 -164 0
-1 2 -164 0
1 2 164 0
3 -7 165 0
-3 -7 -165 0
3 7 -165 0
-3 7 165 0
-15 16 166 0
15 16 -166 0
-15 -16 -166 0
15 -16 166 0
17 18 167 0
-17 18 -167 0
17 -18 -167 0
-17 -18 167 0
-20 22 168 0
20 22 -168 0
-20 -22 -168 0
20 -22 168 0
24 25 169 0
-24 25 -169 0
24 -25 -169 0
-24 -25 169 0
-28 -31 170 0
28 -31 -170 0
-28 31 -170 0
28 31 170 0
36 -37 171 0
-36 -37 -171 0
36 37 -171 0
-36 37 171 0
39 40 172 0
-39 40 -172 0
39 -40 -172 0
-39 -40 172 0
-41 -45 173 0
41 -45 -173 0
-41 45 -173 0
41 45 173 0
164 -165 174 0
-164 -165 -174 0
164 165 -174 0
-164 165 174 0
166 -167 175 0
-166 -167 -175 0
166 167 -175 0
-166 167 175 0
168 -169 176 0
-168 -169 -176 0
168 169 -176 0
-168 169 176 0
170 -171 177 0
-170 -171 -177 0
170 171 -177 0
-170 171 177 0
172 -173 178 0
-172 -173 -178 0
172 173 -178 0
-172 173 178 0
174 -175 179 0
-174 -175 -179 0
174 175 -179 0
-174 175 179 0
176 -177 180 0
-176 -177 -180 0
176 177 -180 0
-176 177 180 0
-178 -179 180 0
178 -179 -180 0
-178 179 -180 0
178 179 180 0
-4 5 181 0
4 5 -181 0
-4 -5 -181 0
4 -5 181 0
9 10 182 0
-9 10 -182 0
9 -10 -182 0
-9 -10 182 0
12 -13 183 0
-12 -13 -183 0
12 13 -183 0
-12 13 183 0
15 17 184 0
-15 17 -184 0
15 -17 -184 0
-15 -17 184 0
18 -20 185 0
-18 -20 -185 0
18 20 -185 0
-18 20 185 0
-21 -24 186 0
21 -24 -186 0
-21 24 -186 0
21 24 186 0
-25 28 187 0
25 28 -187 0
-25 -28 -187 0
25 -28 187 0
29 30 188 0
-29 30 -188 0
29 -30 -188 0
-29 -30 188 0
33 34 189 0
-33 34 -189 0
33 -34 -189 0
-33 -34 189 0
35 42 190 0
-35 42 -190 0
35 -42 -190 0
-35 -42 190 0
44 45 191 0
-44 45 -191 0
44 -45 -191 0
-44 -45 191 0
46 48 192 0
-46 48 -192 0
46 -48 -192 0
-46 -48 192 0
181 -182 193 0
-181 -182 -193 0
181 182 -193 0
-181 182 193 0
183 -184 194 0
-183 -184 -194 0
183 184 -194 0
-183 184 194 0
185 -186 195 0
-185 -186 -195 0
185 186 -195 0
-185 186 195 0
187 -188 196 0
-187 -188 -196 0
187 188 -196 0
-187 188 196 0
189 -190 197 0
-189 -190 -197 0
189 190 -197 0
-189 190 197 0
191 -192 198 0
-191 -192 -198 0
191 192 -198 0
-191 192 198 0
193 -194 199 0
-193 -194 -199 0
193 194 -199 0
-193 194 199 0
195 -196 200 0
-195 -196 -200 0
195 196 -200 0
-195 196 200 0
197 -198 201 0
-197 -198 -201 0
197 198 -201 0
-197 198 201 0
-199 -200 201 0
199 -200 -201 0
-199 200 -201 0
199 200 201 0
1 2 202 0
-1 2 -202 0
1 -2 -202 0
-1 -2 202 0
3 -7 203 0
-3 -7 -203 0
3 7 -203 0
-3 7 203 0
11 12 204 0
-11 12 -204 0
11 -12 -204 0
-11 -12 204 0
-14 17 205 0
14 17 -205 0
-14 -17 -205 0
14 -17 205 0
18 -20 206 0
-18 -20 -206 0
18 20 -206 0
-18 20 206 0
21 22 207 0
-21 22 -207 0
21 -22 -207 0
-21 -22 207 0
-23 24 208 0
23 24 -208 0
-23 -24 -208 0
23 -24 208 0
-25 27 209 0
25 27 -209 0
-25 -27 -209 0
25 -27 209 0
-29 31 210 0
29 31 -210 0
-29 -31 -210 0
29 -31 210 0
-32 -33 211 0
32 -33 -211 0
-32 33 -211 0
32 33 211 0
34 -37 212 0
-34 -37 -212 0
34 37 -212 0
-34 37 212 0
-38 42 213 0
38 42 -213 0
-38 -42 -213 0
38 -42 213 0
44 45 214 0
-44 45 -214 0
44 -45 -214 0
-44 -45 214 0
-47 50 215 0
47 50 -215 0
-47 -50 -215 0
47 -50 215 0
202 -203 216 0
-202 -203 -216 0
202 203 -216 0
-202 203 216 0
204 -205 217 0
-204 -205 -217 0
204 205 -217 0
-204 205 217 0
206 -207 218 0
-206 -207 -218 0
206 207 -218 0
-206 207 218 0
208 -209 219 0
-208 -209 -219 0
208 209 -219 0
-208 209 219 0
210 -211 220 0
-210 -211 -220 0
210 211 -220 0
-210 211 220 0
212 -213 221 0
-212 -213 -221 0
212 213 -221 0
-212 213 221 0
214 -215 222 0
-214 -215 -222 0
214 215 -222 0
-214 215 222 0
216 -217 223 0
-216 -217 -223 0
216 217 -223 0
-216 217 223 0
218 -219 224 0
-218 -219 -224 0
218 219 -224 0
-218 219 224 0
220 -221 225 0
-220 -221 -225 0
220 221 -225 0
-220 221 225 0
222 -223 226 0
-222 -223 -226 0
222 223 -226 0
-222 223 226 0
224 -225 227 0
-224 -225 -227 0
224 225 -227 0
-224 225 227 0
226 227 0
-226 -227 0
1 2 228 0
-1 2 -228 0
1 -2 -228 0
-1 -2 228 0
-4 6 229 0
4 6 -229 0
-4 -6 -229 0
4 -6 229 0
-7 9 230 0
7 9 -230 0
-7 -9 -230 0
7 -9 230 0
11 -12 231 0
-11 -12 -231 0
11 12 -231 0
-11 12 231 0
-14 15 232 0
14 15 -232 0
-14 -15 -232 0
14 -15 232 0
16 -22 233 0
-16 -22 -233 0
16 22 -233 0
-16 22 233 0
-23 28 234 0
23 28 -234 0
-23 -28 -234 0
23 -28 234 0
-31 33 235 0
31 33 -235 0
-31 -33 -235 0
31 -33 235 0
-35 36 236 0
35 36 -236 0
-35 -36 -236 0
35 -36 236 0
-37 -38 237 0
37 -38 -237 0
-37 38 -237 0
37 38 237 0
-39 40 238 0
39 40 -238 0
-39 -40 -238 0
39 -40 238 0
-41 -44 239 0
41 -44 -239 0
-41 44 -239 0
41 44 239 0
45 46 240 0
-45 46 -240 0
45 -46 -240 0
-45 -46 240 0
228 -229 241 0
-228 -229 -241 0
228 229 -241 0
-228 229 241 0
230 -231 242 0
-230 -231 -242 0
230 231 -242 0
-230 231 242 0
232 -233 243 0
-232 -233 -243 0
232 233 -243 0
-232 233 243 0
234 -235 244 0
-234 -235 -244 0
234 235 -244 0
-234 235 244 0
236 -237 245 0
-236 -237 -245 0
236 237 -245 0
-236 237 245 0
238 -239 246 0
-238 -239 -246 0
238 239 -246 0
-238 239 246 0
240 -241 247 0
-240 -241 -247 0
240 241 -247 0
-240 241 247 0
242 -243 248 0
-242 -243 -248 0
242 243 -248 0
-242 243 248 0
244 -245 249 0
-244 -245 -249 0
244 245 -249 0
-244 245 249 0
246 -247 250 0
-246 -247 -250 0
246 247 -250 0
-246 247 250 0
248 -249 251 0
-248 -249 -251 0
248 249 -251 0
-248 249 251 0
250 251 0
-250 -251 0
1 2 252 0
-1 2 -252 0
1 -2 -252 0
-1 -2 252 0
4 5 253 0
-4 5 -253 0
4 -5 -253 0
-4 -5 253 0
6 10 254 0
-6 10 -254 0
6 -10 -254 0
-6 -10 254 0
-12 13 255 0
12 13 -255 0
-12 -13 -255 0
12 -13 255 0
14 -15 256 0
-14 -15 -256 0
14 15 -256 0
-14 15 256 0
-16 -17 257 0
16 -17 -257 0
-16 17 -257 0
16 17 257 0
18 20 258 0
-18 20 -258 0
18 -20 -258 0
-18 -20 258 0
21 -22 259 0
-21 -22 -259 0
21 22 -259 0
-21 22 259 0
23 24 260 0
-23 24 -260 0
23 -24 -260 0
-23 -24 260 0
-27 30 261 0
27 30 -261 0
-27 -30 -261 0
27 -30 261 0
-31 32 262 0
31 32 -262 0
-31 -32 -262 0
31 -32 262 0
-33 38 263 0
33 38 -263 0
-33 -38 -263 0
33 -38 263 0
42 -43 264 0
-42 -43 -264 0
42 43 -264 0
-42 43 264 0
44 45 265 0
-44 45 -265 0
44 -45 -265 0
-44 -45 265 0
47 48 266 0
-47 48 -266 0
47 -48 -266 0
-47 -48 266 0
252 -253 267 0
-252 -253 -267 0
252 253 -267 0
-252 253 267 0
254 -255 268 0
-254 -255 -268 0
254 255 -268 0
-254 255 268 0
256 -257 269 0
-256 -257 -269 0
256 257 -269 0
-256 257 269 0
258 -259 270 0
-258 -259 -270 0
258 259 -270 0
-258 259 270 0
260 -261 271 0
-260 -261 -271 0
260 261 -271 0
-260 261 271 0
262 -263 272 0
-262 -263 -272 0
262 263 -272 0
-262 263 272 0
264 -265 273 0
-264 -265 -273 0
264 265 -273 0
-264 265 273 0
266 -267 274 0
-266 -267 -274 0
266 267 -274 0
-266 267 274 0
268 -269 275 0
-268 -269 -275 0
268 269 -275 0
-268 269 275 0
270 -271 276 0
-270 -271 -276 0
270 271 -276 0
-270 271 276 0
272 -273 277 0
-272 -273 -277 0
272 273 -277 0
-272 273 277 0
274 -275 278 0
-274 -275 -278 0
274 275 -278 0
-274 275 278 0
276 -277 279 0
-276 -277 -279 0
276 277 -279 0
-276 277 279 0
278 279 0
-278 -279 0
1 2 280 0
-1 2 -280 0
1 -2 -280 0
-1 -2 280 0
-3 -5 281 0
3 -5 -281 0
-3 5 -281 0
3 5 281 0
6 -16 282 0
-6 -16 -282 0
6 16 -282 0
-6 16 282 0
17 18 283 0
-17 18 -283 0
17 -18 -283 0
-17 -18 283 0
-19 -20 284 0
19 -20 -284 0
-19 20 -284 0
19 20 284 0
-25 26 285 0
25 26 -285 0
-25 -26 -285 0
25 -26 285 0
31 -33 286 0
-31 -33 -286 0
31 33 -286 0
-31 33 286 0
-34 -38 287 0
34 -38 -287 0
-34 38 -287 0
34 38 287 0
-39 -41 288 0
39 -41 -288 0
-39 41 -288 0
39 41 288 0
47 -48 289 0
-47 -48 -289 0
47 48 -289 0
-47 48 289 0
280 -281 290 0
-280 -281 -290 0
280 281 -290 0
-280 281 290 0
282 -283 291 0
-282 -283 -291 0
282 283 -291 0
-282 283 291 0
284 -285 292 0
-284 -285 -292 0
284 285 -292 0
-284 285 292 0
286 -287 293 0
-286 -287 -293 0
286 287 -293 0
-286 287 293 0
288 -289 294 0
-288 -289 -294 0
288 289 -294 0
-288 289 294 0
290 -291 295 0
-290 -291 -295 0
290 291 -295 0
-290 291 295 0
292 -293 296 0
-292 -293 -296 0
292 293 -296 0
-292 293 296 0
-294 -295 296 0
294 -295 -296 0
-294 295 -296 0
294 295 296 0
-1 -5 297 0
1 -5 -297 0
-1 5 -297 0
1 5 297 0
-6 -7 298 0
6 -7 -298 0
-6 7 -298 0
6 7 298 0
10 11 299 0
-10 11 -299 0
10 -11 -299 0
-10 -11 299 0
-14 -17 300 0
14 -17 -300 0
-14 17 -300 0
14 17 300 0
-18 21 301 0
18 21 -301 0
-18 -21 -301 0
18 -21 301 0
-23 24 302 0
23 24 -302 0
-23 -24 -302 0
23 -24 302 0
-25 -26 303 0
25 -26 -303 0
-25 26 -303 0
25 26 303 0
-29 -33 304 0
29 -33 -304 0
-29 33 -304 0
29 33 304 0
34 35 305 0
-34 35 -305 0
34 -35 -305 0
-34 -35 305 0
-36 37 306 0
36 37 -306 0
-36 -37 -306 0
36 -37 306 0
-38 39 307 0
38 39 -307 0
-38 -39 -307 0
38 -39 307 0
-42 44 308 0
42 44 -308 0
-42 -44 -308 0
42 -44 308 0
45 46 309 0
-45 46 -309 0
45 -46 -309 0
-45 -46 309 0
296 -297 310 0
-296 -297 -310 0
296 297 -310 0
-296 297 310 0
298 -299 311 0
-298 -299 -311 0
298 299 -311 0
-298 299 311 0
300 -301 312 0
-300 -301 -312 0
300 301 -312 0
-300 301 312 0
302 -303 313 0
-302 -303 -313 0
302 303 -313 0
-302 303 313 0
304 -305 314 0
-304 -305 -314 0
304 305 -314 0
-304 305 314 0
306 -307 315 0
-306 -307 -315 0
306 307 -315 0
-306 307 315 0
308 -309 316 0
-308 -309 -316 0
308 309 -316 0
-308 309 316 0
310 -311 317 0
-310 -311 -317 0
310 311 -317 0
-310 311 317 0
312 -313 318 0
-312 -313 -318 0
312 313 -318 0
-312 313 318 0
314 -315 319 0
-314 -315 -319 0
314 315 -319 0
-314 315 319 0
316 -317 320 0
-316 -317 -320 0
316 317 -320 0
-316 317 320 0
318 -319 321 0
-318 -319 -321 0
318 319 -321 0
-318 319 321 0
320 321 0
-320 -321 0
1 3 322 0
-1 3 -322 0
1 -3 -322 0
-1 -3 322 0
5 6 323 0
-5 6 -323 0
5 -6 -323 0
-5 -6 323 0
-8 10 324 0
8 10 -324 0
-8 -10 -324 0
8 -10 324 0
11 14 325 0
-11 14 -325 0
11 -14 -325 0
-11 -14 325 0
17 -21 326 0
-17 -21 -326 0
17 21 -326 0
-17 21 326 0
-22 -33 327 0
22 -33 -327 0
-22 33 -327 0
22 33 327 0
34 -35 328 0
-34 -35 -328 0
34 35 -328 0
-34 35 328 0
36 -40 329 0
-36 -40 -329 0
36 40 -329 0
-36 40 329 0
-42 43 330 0
42 43 -330 0
-42 -43 -330 0
42 -43 330 0
44 -46 331 0
-44 -46 -331 0
44 46 -331 0
-44 46 331 0
47 48 332 0
-47 48 -332 0
47 -48 -332 0
-47 -48 332 0
321 -322 333 0
-321 -322 -333 0
321 322 -333 0
-321 322 333 0
323 -324 334 0
-323 -324 -334 0
323 324 -334 0
-323 324 334 0
325 -326 335 0
-325 -326 -335 0
325 326 -335 0
-325 326 335 0
327 -328 336 0
-327 -328 -336 0
327 328 -336 0
-327 328 336 0
329 -330 337 0
-329 -330 -337 0
329 330 -337 0
-329 330 337 0
331 -332 338 0
-331 -332 -338 0
331 332 -338 0
-331 332 338 0
333 -334 339 0
-333 -334 -339 0
333 334 -339 0
-333 334 339 0
335 -336 340 0
-335 -336 -340 0
335 336 -340 0
-335 336 340 0
337 -338 341 0
-337 -338 -341 0
337 338 -341 0
-337 338 341 0
-339 -340 341 0
339 -340 -341 0
-339 340 -341 0
339 340 341 0
1 -5 342 0
-1 -5 -342 0
1 5 -342 0
-1 5 342 0
9 10 343 0
-9 10 -343 0
9 -10 -343 0
-9 -10 343 0
-13 14 344 0
13 14 -344 0
-13 -14 -344 0
13 -14 344 0
-15 17 345 0
15 17 -345 0
-15 -17 -345 0
15 -17 345 0
-18 -20 346 0
18 -20 -346 0
-18 20 -346 0
18 20 346 0
-24 -31 347 0
24 -31 -347 0
-24 31 -347 0
24 31 347 0
33 34 348 0
-33 34 -348 0
33 -34 -348 0
-33 -34 348 0
35 38 349 0
-35 38 -349 0
35 -38 -349 0
-35 -38 349 0
-41 43 350 0
41 43 -350 0
-41 -43 -350 0
41 -43 350 0
-44 -46 351 0
44 -46 -351 0
-44 46 -351 0
44 46 351 0
-47 -48 352 0
47 -48 -352 0
-47 48 -352 0
47 48 352 0
341 -342 353 0
-341 -342 -353 0
341 342 -353 0
-341 342 353 0
343 -344 354 0
-343 -344 -354 0
343 344 -354 0
-343 344 354 0
345 -346 355 0
-345 -346 -355 0
345 346 -355 0
-345 346 355 0
347 -348 356 0
-347 -348 -356 0
347 348 -356 0
-347 348 356 0
349 -350 357 0
-349 -350 -357 0
349 350 -357 0
-349 350 357 0
351 -352 358 0
-351 -352 -358 0
351 352 -358 0
-351 352 358 0
353 -354 359 0
-353 -354 -359 0
353 354 -359 0
-353 354 359 0
355 -356 360 0
-355 -356 -360 0
355 356 -360 0
-355 356 360 0
357 -358 361 0
-357 -358 -361 0
357 358 -361 0
-357 358 361 0
-359 -360 361 0
359 -360 -361 0
-359 360 -361 0
359 360 361 0
-1 -2 362 0
1 -2 -362 0
-1 2 -362 0
1 2 362 0
-6 7 363 0
6 7 -363 0
-6 -7 -363 0
6 -7 363 0
8 -10 364 0
-8 -10 -364 0
8 10 -364 0
-8 10 364 0
12 19 365 0
-12 19 -365 0
12 -19 -365 0
-12 -19 365 0
-21 -23 366 0
21 -23 -366 0
-21 23 -366 0
21 23 366 0
25 -27 367 0
-25 -27 -367 0
25 27 -367 0
-25 27 367 0
-28 29 368 0
28 29 -368 0
-28 -29 -368 0
28 -29 368 0
32 39 369 0
-32 39 -369 0
32 -39 -369 0
-32 -39 369 0
-42 43 370 0
42 43 -370 0
-42 -43 -370 0
42 -43 370 0
44 47 371 0
-44 47 -371 0
44 -47 -371 0
-44 -47 371 0
362 -363 372 0
-362 -363 -372 0
362 363 -372 0
-362 363 372 0
364 -365 373 0
-364 -365 -373 0
364 365 -373 0
-364 365 373 0
366 -367 374 0
-366 -367 -374 0
366 367 -374 0
-366 367 374 0
368 -369 375 0
-368 -369 -375 0
368 369 -375 0
-368 369 375 0
370 -371 376 0
-370 -371 -376 0
370 371 -376 0
-370 371 376 0
372 -373 377 0
-372 -373 -377 0
372 373 -377 0
-372 373 377 0
374 -375 378 0
-374 -375 -378 0
374 375 -378 0
-374 375 378 0
-376 -377 378 0
376 -377 -378 0
-376 377 -378 0
376 377 378 0
-12 379 0
-24 379 0
-12 -24 380 0
-23 379 0
-12 -23 380 0
-24 -23 380 0
-12 -24 -23 381 0
-22 382 0
-21 382 0
-22 -21 383 0
-20 382 0
-22 -20 383 0
-21 -20 383 0
-22 -21 -20 384 0
-379 385 0
-380 386 0
-381 387 0
-382 385 0
-383 386 0
-384 387 0
-379 -382 386 0
-379 -383 387 0
-379 -384 388 0
-380 -382 387 0
-380 -383 388 0
-380 -384 389 0
-381 -382 388 0
-381 -383 389 0
-381 -384 390 0
-19 391 0
-18 391 0
-19 -18 392 0
-17 391 0
-19 -17 392 0
-18 -17 392 0
-19 -18 -17 393 0
-16 394 0
-15 394 0
-16 -15 395 0
-14 394 0
-16 -14 395 0
-15 -14 395 0
-16 -15 -14 396 0
-391 397 0
-392 398 0
-393 399 0
-394 397 0
-395 398 0
-396 399 0
-391 -394 398 0
-391 -395 399 0
-391 -396 400 0
-392 -394 399 0
-392 -395 400 0
-392 -396 401 0
-393 -394 400 0
-393 -395 401 0
-393 -396 402 0
-385 403 0
-387 404 0
-389 405 0
-397 403 0
-399 404 0
-401 405 0
-385 -397 404 0
-385 -399 405 0
-385 -401 406 0
-387 -397 405 0
-387 -399 406 0
-387 -401 407 0
-389 -397 406 0
-389 -399 407 0
-389 -401 408 0
-386 409 0
-388 410 0
-390 411 0
-398 409 0
-400 410 0
-402 411 0
-386 -398 410 0
-386 -400 411 0
-386 -402 412 0
-388 -398 411 0
-388 -400 412 0
-388 -402 413 0
-390 -398 412 0
-390 -400 413 0
-390 -402 414 0
-404 415 0
-409 415 0
-404 -409 416 0
-405 417 0
-410 417 0
-405 -410 418 0
-406 419 0
-411 419 0
-406 -411 420 0
-407 421 0
-412 421 0
-407 -412 422 0
-408 423 0
-413 423 0
-408 -413 424 0
-13 425 0
-25 425 0
-13 -25 426 0
-11 425 0
-13 -11 426 0
-25 -11 426 0
-13 -25 -11 427 0
-10 428 0
-9 428 0
-10 -9 429 0
-8 428 0
-10 -8 429 0
-9 -8 429 0
-10 -9 -8 430 0
-425 431 0
-426 432 0
-427 433 0
-428 431 0
-429 432 0
-430 433 0
-425 -428 432 0
-425 -429 433 0
-425 -430 434 0
-426 -428 433 0
-426 -429 434 0
-426 -430 435 0
-427 -428 434 0
-427 -429 435 0
-427 -430 436 0
-7 437 0
-6 437 0
-7 -6 438 0
-5 437 0
-7 -5 438 0
-6 -5 438 0
-7 -6 -5 439 0
-4 440 0
-3 440 0
-4 -3 441 0
-2 440 0
-4 -2 441 0
-3 -2 441 0
-4 -3 -2 442 0
-437 443 0
-438 444 0
-439 445 0
-440 443 0
-441 444 0
-442 445 0
-437 -440 444 0
-437 -441 445 0
-437 -442 446 0
-438 -440 445 0
-438 -441 446 0
-438 -442 447 0
-439 -440 446 0
-439 -441 447 0
-439 -442 448 0
-431 449 0
-433 450 0
-435 451 0
-443 449 0
-445 450 0
-447 451 0
-431 -443 450 0
-431 -445 451 0
-431 -447 452 0
-433 -443 451 0
-433 -445 452 0
-433 -447 453 0
-435 -443 452 0
-435 -445 453 0
-435 -447 454 0
-432 455 0
-434 456 0
-436 457 0
-444 455 0
-446 456 0
-448 457 0
-432 -444 456 0
-432 -446 457 0
-432 -448 458 0
-434 -444 457 0
-434 -446 458 0
-434 -448 459 0
-436 -444 458 0
-436 -446 459 0
-436 -448 460 0
-450 461 0
-455 461 0
-450 -455 462 0
-451 463 0
-456 463 0
-451 -456 464 0
-452 465 0
-457 465 0
-452 -457 466 0
-453 467 0
-458 467 0
-453 -458 468 0
-454 469 0
-459 469 0
-454 -459 470 0
-1 471 0
-37 471 0
-1 -37 472 0
-49 471 0
-1 -49 472 0
-37 -49 472 0
-1 -37 -49 473 0
-48 474 0
-47 474 0
-48 -47 475 0
-46 474 0
-48 -46 475 0
-47 -46 475 0
-48 -47 -46 476 0
-471 477 0
-472 478 0
-473 479 0
-474 477 0
-475 478 0
-476 479 0
-471 -474 478 0
-471 -475 479 0
-471 -476 480 0
-472 -474 479 0
-472 -475 480 0
-472 -476 481 0
-473 -474 480 0
-473 -475 481 0
-473 -476 482 0
-45 483 0
-44 483 0
-45 -44 484 0
-43 483 0
-45 -43 484 0
-44 -43 484 0
-45 -44 -43 485 0
-42 486 0
-41 486 0
-42 -41 487 0
-40 486 0
-42 -40 487 0
-41 -40 487 0
-42 -41 -40 488 0
-483 489 0
-484 490 0
-485 491 0
-486 489 0
-487 490 0
-488 491 0
-483 -486 490 0
-483 -487 491 0
-483 -488 492 0
-484 -486 491 0
-484 -487 492 0
-484 -488 493 0
-485 -486 492 0
-485 -487 493 0
-485 -488 494 0
-477 495 0
-479 496 0
-481 497 0
-489 495 0
-491 496 0
-493 497 0
-477 -489 496 0
-477 -491 497 0
-477 -493 498 0
-479 -489 497 0
-479 -491 498 0
-479 -493 499 0
-481 -489 498 0
-481 -491 499 0
-481 -493 500 0
-478 501 0
-480 502 0
-482 503 0
-490 501 0
-492 502 0
-494 503 0
-478 -490 502 0
-478 -492 503 0
-478 -494 504 0
-480 -490 503 0
-480 -492 504 0
-480 -494 505 0
-482 -490 504 0
-482 -492 505 0
-482 -494 506 0
-496 507 0
-501 507 0
-496 -501 508 0
-497 509 0
-502 509 0
-497 -502 510 0
-498 511 0
-503 511 0
-498 -503 512 0
-499 513 0
-504 513 0
-499 -504 514 0
-500 515 0
-505 515 0
-500 -505 516 0
-39 517 0
-38 517 0
-39 -38 518 0
-50 517 0
-39 -50 518 0
-38 -50 518 0
-39 -38 -50 519 0
-36 520 0
-35 520 0
-36 -35 521 0
-34 520 0
-36 -34 521 0
-35 -34 521 0
-36 -35 -34 522 0
-517 523 0
-518 524 0
-519 525 0
-520 523 0
-521 524 0
-522 525 0
-517 -520 524 0
-517 -521 525 0
-517 -522 526 0
-518 -520 525 0
-518 -521 526 0
-518 -522 527 0
-519 -520 526 0
-519 -521 527 0
-519 -522 528 0
-33 529 0
-32 529 0
-33 -32 530 0
-31 529 0
-33 -31 530 0
-32 -31 530 0
-33 -32 -31 531 0
-30 532 0
-29 532 0
-30 -29 533 0
-28 534 0
-27 534 0
-28 -27 535 0
-26 534 0
-28 -26 535 0
-27 -26 535 0
-28 -27 -26 536 0
-532 537 0
-533 538 0
-534 537 0
-535 538 0
-536 539 0
-532 -534 538 0
-532 -535 539 0
-532 -536 540 0
-533 -534 539 0
-533 -535 540 0
-533 -536 541 0
-529 542 0
-530 543 0
-531 544 0
-537 542 0
-538 543 0
-539 544 0
-540 545 0
-541 546 0
-529 -537 543 0
-529 -538 544 0
-529 -539 545 0
-529 -540 546 0
-529 -541 547 0
-530 -537 544 0
-530 -538 545 0
-530 -539 546 0
-530 -540 547 0
-530 -541 548 0
-531 -537 545 0
-531 -538 546 0
-531 -539 547 0
-531 -540 548 0
-531 -541 549 0
-523 550 0
-525 551 0
-527 552 0
-542 550 0
-544 551 0
-546 552 0
-548 553 0
-523 -542 551 0
-523 -544 552 0
-523 -546 553 0
-523 -548 554 0
-525 -542 552 0
-525 -544 553 0
-525 -546 554 0
-525 -548 555 0
-527 -542 553 0
-527 -544 554 0
-527 -546 555 0
-527 -548 556 0
-524 557 0
-526 558 0
-528 559 0
-543 557 0
-545 558 0
-547 559 0
-549 560 0
-524 -543 558 0
-524 -545 559 0
-524 -547 560 0
-524 -549 561 0
-526 -543 559 0
-526 -545 560 0
-526 -547 561 0
-526 -549 562 0
-528 -543 560 0
-528 -545 561 0
-528 -547 562 0
-528 -549 563 0
-551 564 0
-557 564 0
-551 -557 565 0
-552 566 0
-558 566 0
-552 -558 567 0
-553 568 0
-559 568 0
-553 -559 569 0
-554 570 0
-560 570 0
-554 -560 571 0
-555 572 0
-561 572 0
-555 -561 573 0
-556 574 0
-562 574 0
-556 -562 575 0
-495 576 0
-510 577 0
-514 578 0
-550 576 0
-567 577 0
-571 578 0
-575 579 0
-495 -550 577 0
-495 -567 578 0
-495 -571 579 0
-495 -575 580 0
-510 -550 578 0
-510 -567 579 0
-510 -571 580 0
-514 -550 579 0
-514 -567 580 0
-508 581 0
-512 582 0
-516 583 0
-565 581 0
-569 582 0
-573 583 0
-508 -565 582 0
-508 -569 583 0
-508 -573 584 0
-512 -565 583 0
-512 -569 584 0
-516 -565 584 0
-577 585 0
-581 585 0
-577 -581 586 0
-578 587 0
-582 587 0
-578 -582 588 0
-579 589 0
-583 589 0
-579 -583 590 0
-580 591 0
-584 591 0
-580 -584 592 0
-507 593 0
-511 594 0
-515 595 0
-564 593 0
-568 594 0
-572 595 0
-563 596 0
-507 -564 594 0
-507 -568 595 0
-507 -572 596 0
-507 -563 597 0
-511 -564 595 0
-511 -568 596 0
-511 -572 597 0
-515 -564 596 0
-515 -568 597 0
-509 598 0
-513 599 0
-506 600 0
-566 598 0
-570 599 0
-574 600 0
-509 -566 599 0
-509 -570 600 0
-509 -574 601 0
-513 -566 600 0
-513 -570 601 0
-506 -566 601 0
-594 602 0
-598 602 0
-594 -598 603 0
-595 604 0
-599 604 0
-595 -599 605 0
-596 606 0
-600 606 0
-596 -600 607 0
-597 608 0
-601 608 0
-585 609 0
-593 609 0
-585 -593 610 0
-586 611 0
-602 611 0
-586 -602 612 0
-587 613 0
-603 613 0
-587 -603 614 0
-588 615 0
-604 615 0
-588 -604 616 0
-589 617 0
-605 617 0
-589 -605 618 0
-590 619 0
-606 619 0
-590 -606 620 0
-591 621 0
-607 621 0
-591 -607 622 0
-592 623 0
-608 623 0
-449 624 0
-464 625 0
-468 626 0
-576 624 0
-612 625 0
-616 626 0
-620 627 0
-449 -576 625 0
-449 -612 626 0
-449 -616 627 0
-449 -620 628 0
-464 -576 626 0
-464 -612 627 0
-464 -616 628 0
-468 -576 627 0
-468 -612 628 0
-462 629 0
-466 630 0
-470 631 0
-610 629 0
-614 630 0
-618 631 0
-622 632 0
-462 -610 630 0
-462 -614 631 0
-462 -618 632 0
-466 -610 631 0
-466 -614 632 0
-470 -610 632 0
-625 633 0
-629 633 0
-625 -629 634 0
-626 635 0
-630 635 0
-626 -630 636 0
-627 637 0
-631 637 0
-627 -631 638 0
-628 639 0
-632 639 0
-628 -632 640 0
-461 641 0
-465 642 0
-469 643 0
-609 641 0
-613 642 0
-617 643 0
-621 644 0
-461 -609 642 0
-461 -613 643 0
-461 -617 644 0
-461 -621 645 0
-465 -609 643 0
-465 -613 644 0
-465 -617 645 0
-469 -609 644 0
-469 -613 645 0
-463 646 0
-467 647 0
-460 648 0
-611 646 0
-615 647 0
-619 648 0
-623 649 0
-463 -611 647 0
-463 -615 648 0
-463 -619 649 0
-467 -611 648 0
-467 -615 649 0
-460 -611 649 0
-642 650 0
-646 650 0
-642 -646 651 0
-643 652 0
-647 652 0
-643 -647 653 0
-644 654 0
-648 654 0
-644 -648 655 0
-645 656 0
-649 656 0
-633 657 0
-641 657 0
-633 -641 658 0
-634 659 0
-650 659 0
-634 -650 660 0
-635 661 0
-651 661 0
-635 -651 662 0
-636 663 0
-652 663 0
-636 -652 664 0
-637 665 0
-653 665 0
-637 -653 666 0
-638 667 0
-654 667 0
-638 -654 668 0
-639 669 0
-655 669 0
-639 -655 670 0
-640 671 0
-656 671 0
-403 672 0
-418 673 0
-422 674 0
-624 672 0
-660 673 0
-664 674 0
-668 675 0
-403 -624 673 0
-403 -660 674 0
-403 -664 675 0
-403 -668 676 0
-418 -624 674 0
-418 -660 675 0
-418 -664 676 0
-422 -624 675 0
-422 -660 676 0
-416 677 0
-420 678 0
-424 679 0
-658 677 0
-662 678 0
-666 679 0
-670 680 0
-416 -658 678 0
-416 -662 679 0
-416 -666 680 0
-420 -658 679 0
-420 -662 680 0
-424 -658 680 0
-673 681 0
-677 681 0
-673 -677 682 0
-674 683 0
-678 683 0
-674 -678 684 0
-675 685 0
-679 685 0
-675 -679 686 0
-676 687 0
-680 687 0
-676 -680 688 0
-415 689 0
-419 690 0
-423 691 0
-657 689 0
-661 690 0
-665 691 0
-669 692 0
-415 -657 690 0
-415 -661 691 0
-415 -665 692 0
-415 -669 693 0
-419 -657 691 0
-419 -661 692 0
-419 -665 693 0
-423 -657 692 0
-423 -661 693 0
-417 694 0
-421 695 0
-414 696 0
-659 694 0
-663 695 0
-667 696 0
-671 697 0
-417 -659 695 0
-417 -663 696 0
-417 -667 697 0
-421 -659 696 0
-421 -663 697 0
-414 -659 697 0
-690 698 0
-694 698 0
-690 -694 699 0
-691 700 0
-695 700 0
-691 -695 701 0
-692 702 0
-696 702 0
-692 -696 703 0
-693 704 0
-697 704 0
-681 705 0
-689 705 0
-681 -689 706 0
-682 707 0
-698 707 0
-682 -698 708 0
-683 709 0
-699 709 0
-683 -699 710 0
-684 711 0
-700 711 0
-684 -700 712 0
-685 713 0
-701 713 0
-685 -701 714 0
-686 715 0
-702 715 0
-686 -702 716 0
-687 717 0
-703 717 0
-687 -703 718 0
-688 719 0
-704 719 0
-719 0
